
Gurobi 6.5.2 (win64) logging started 07/24/16 17:57:40


Gurobi 6.5.2 (win64) logging started 07/24/16 17:57:40

Optimize a model with 3997 rows, 798 columns and 9942 nonzeros
Coefficient statistics:
  Matrix range    [6e-08, 4e+02]
  Objective range [1e+00, 1e+00]
  Bounds range    [1e+00, 1e+00]
  RHS range       [6e-06, 2e+03]
Presolve removed 3323 rows and 84 columns
Presolve time: 0.00s
Presolved: 674 rows, 714 columns, 3431 nonzeros
Variable types: 285 continuous, 429 integer (429 binary)

Root relaxation: objective 1.814998e+01, 1928 iterations, 0.06 seconds

    Nodes    |    Current Node    |     Objective Bounds      |     Work
 Expl Unexpl |  Obj  Depth IntInf | Incumbent    BestBd   Gap | It/Node Time

     0     0   18.14998    0  108          -   18.14998      -     -    0s
H    0     0                      19.9988837   18.14998  9.25%     -    0s
     0     0   19.45956    0  112   19.99888   19.45956  2.70%     -    0s
H    0     0                      19.9675231   19.45956  2.54%     -    0s
H    0     0                      19.8962781   19.45956  2.19%     -    0s
     0     0   19.46290    0  111   19.89628   19.46290  2.18%     -    0s
H    0     0                      19.8941108   19.46290  2.17%     -    0s
H    0     0                      19.8936798   19.46290  2.17%     -    0s
     0     0   19.46290    0   96   19.89368   19.46290  2.17%     -    0s
H    0     0                      19.8785021   19.46290  2.09%     -    0s
     0     0   19.46290    0   84   19.87850   19.46290  2.09%     -    0s
     0     0   19.58008    0   89   19.87850   19.58008  1.50%     -    0s
     0     0   19.63567    0   92   19.87850   19.63567  1.22%     -    0s
     0     0   19.64218    0   89   19.87850   19.64218  1.19%     -    0s
     0     0   19.65770    0   87   19.87850   19.65770  1.11%     -    0s
     0     0   19.65807    0   87   19.87850   19.65807  1.11%     -    0s
     0     0   19.66617    0   87   19.87850   19.66617  1.07%     -    0s
H    0     0                      19.8640491   19.66617  1.00%     -    0s
     0     0   19.66617    0   78   19.86405   19.66617  1.00%     -    0s
H    0     0                      19.8616290   19.66617  0.98%     -    0s
     0     2   19.66617    0   76   19.86163   19.66617  0.98%     -    0s
*   24     3              15      19.8288167   19.72986  0.50%  11.4    0s

Cutting planes:
  Gomory: 3
  MIR: 23

Explored 196 nodes (4283 simplex iterations) in 0.37 seconds
Thread count was 8 (of 8 available processors)

Optimal solution found (tolerance 1.00e-04)
Best objective 1.982881669097e+01, best bound 1.982881669097e+01, gap 0.0%

Wrote requested result file 'H1\instance30\\Results30E_Sol6.lp'

